\ENCODING=ISO-8859-1
\Problem name: IloCplex

Minimize
 obj: 1000000000000 x1 + 1000000000000 x2 + 1000000000000 x3 + 1000000000000 x4
      + 1000000000000 x5 + 1000000000000 x6 + 1000000000000 x7
      + 1000000000000 x8 + 1000000000000 x9 + 1000000000000 x10
      + 1000000000000 x11 + 1000000000000 x12 + 1000000000000 x13
      + 1000000000000 x14 + 1000000000000 x15 + 1000000000000 x16
      + 1000000000000 x17 + 1000000000000 x18 + 1000000000000 x19
      + 1000000000000 x20 + 1000000000000 x21 + 1000000000000 x22
      + 1000000000000 x23 + 1000000000000 x24 + 1000000000000 x25
      + 1000000000000 x26 + 1000000000000 x27 + 1000000000000 x28
      + 1000000000000 x29 + 1000000000000 x30 + 1000000000000 x31
      + 1000000000000 x32 + 1000000000000 x33 + 1000000000000 x34
      + 1000000000000 x35 + 1000000000000 x36 + 1000000000000 x37
      + 1000000000000 x38 + 1000000000000 x39 + 1000000000000 x40
      + 1000000000000 x41 + 1000000000000 x42 + 1000000000000 x43
      + 1000000000000 x44 + 1000000000000 x45 + 1000000000000 x46
      + 1000000000000 x47 + 1000000000000 x48 + 1000000000000 x49
      + 1000000000000 x50 + x51 + x52 + x53 + x54 + x55 + x56 + x57 + x58 + x59
      + x60 + x61 + x62 + x63 + x64 + x65 + x66 + x67 + x68 + x69 + x70 + x71
      + x72 + x73 + x74 + x75 + x76 + x77 + x78 + x79 + x80 + x81 + x82 + x83
      + x84 + x85 + x86 + x87 + x88 + x89 + x90 + x91 + x92 + x93 + x94 + x95
      + x96 + x97 + x98 + x99 + x100 + x101 + x102 + x103 + x104 + x105 + x106
      + x107 + x108 + x109 + x110 + x111 + x112 + x113 + x114 + x115 + x116
      + x117 + x118 + x119 + x120 + x121 + x122 + x123 + x124 + x125 + x126
      + x127 + x128 + x129 + x130 + x131 + x132 + x133 + x134 + x135 + x136
      + x137 + x138 + x139 + x140 + x141 + x142 + x143 + x144 + x145 + x146
      + x147 + x148 + x149 + x150 + x151 + x152 + x153 + x154 + x155 + x156
      + x157 + x158 + x159 + x160 + x161 + x162 + x163 + x164 + x165 + x166
      + x167 + x168 + x169 + x170 + x171 + x172 + x173 + x174 + x175 + x176
      + x177 + x178 + x179 + x180 + x181
Subject To
 c1:  x1 + x163  = 1
 c2:  x2 + x174  = 1
 c3:  x3 + x158  = 1
 c4:  x4 + x177  = 1
 c5:  x5 + x171 + x176  = 1
 c6:  x6 + x169 + x170  = 1
 c7:  x7 + x162 + x168 + x175  = 1
 c8:  x8 + x161 + x166  = 1
 c9:  x9 + x159 + x160 + x173  = 1
 c10: x10 + x131 + x134 + x135  = 1
 c11: x11 + x150 + x157  = 1
 c12: x12 + x145 + x155  = 1
 c13: x13 + x143 + x156 + x172  = 1
 c14: x14 + x139 + x142 + x167  = 1
 c15: x15 + x136 + x138 + x164  = 1
 c16: x16 + x112 + x116 + x149  = 1
 c17: x17 + x125 + x129 + x144 + x148  = 1
 c18: x18 + x127 + x128 + x133  = 1
 c19: x19 + x123 + x126 + x141  = 1
 c20: x20 + x117 + x119 + x151  = 1
 c21: x21 + x120 + x122 + x124  = 1
 c22: x22 + x108 + x111 + x121 + x140 + x180  = 1
 c23: x23 + x101 + x106 + x118 + x146 + x165  = 1
 c24: x24 + x104 + x107 + x115 + x153 + x181  = 1
 c25: x25 + x91 + x99 + x100 + x102 + x110 + x113 + x137 + x140  = 1
 c26: x26 + x92 + x97 + x104 + x154  = 1
 c27: x27 + x89 + x98 + x99 + x101 + x130 + x132 + x165  = 1
 c28: x28 + 6.66133814775094e-16 x87 + x88 + x89 + x92 + x103 + x105 + x109
      + x120 + x152 + x178  = 1
 c29: x29 - 1.11022302462516e-16 x69 + x76 + x86 + x87 + x95 + x98 + x124
      + x152 + x179 + x180 + x181  = 1
 c30: x30 + x78 + x83 + x84 + x85 + x96 + x106 + x117 + x147  = 1
 c31: x31 + x78 + x80 + x81 + x94 + x95 + x109 + x122 + x123  = 1
 c32: x32 + x65 + x76 + x77 + x96 + x114 + x115 + x119 + x147 + x148 + x179
       = 1
 c33: x33 + 6.66133814775094e-16 x69 + x72 + x74 + x81 + x82 + x90 + x91 + x93
      + x103 + x127 + x147 + x149 + x178  = 1
 c34: x34 + x72 + x75 + x77 + x79 + x86 + x88 + x96 + x114 + x118 + x132 + x146
      + x151 + x153 + x154  = 1
 c35: x35 + x69 + x70 + x72 + x73 + x83 + x90 + x94 + x100 + x102 + x108 + x144
      + x154 + x179  = 1
 c36: x36 + x66 + x67 + x68 + x70 + x71 + x73 + x75 + x82 + x87 + x93 + x95
      + x137 + x141  = 1
 c37: x37 + x64 + x65 + x66 + x67 + x68 + x79 + x80 + x85 + x90 + x93 + x97
      + x110 + x112 + x178  = 1
 c38: x38 + x60 + x61 + x62 + x63 + x64 + x69 + x70 + x74 + x75 + x80 + x84
      + x87 + x94 + x103 + x110 + x121 + x136  = 1
 c39: x39 + x56 + x57 + x58 + x59 + x60 + x61 + x63 + x64 + x65 + x78 + x97
      + x105 + x111 + x113 + x115 + x121 + x125 + x132 + x142  = 1
 c40: x40 + x54 + x55 + x56 + x57 + x58 + x59 + x60 + x61 + x62 + x66 + x71
      + x73 + x74 + x82 + x83 + x88 + x91 + x102 + x105 + x107 + x118 + x130
      + x133 + x143 + x160 + x168  = 1
 c41: x41 + x51 + x52 + x53 + x54 + x55 + x58 + x59 + x62 + x63 + x68 + x69
      + x71 + x73 + x76 + x79 + x84 + x93 + x94 + x105 + x113 + x114 + x126
      + x128 + x139 + x152 + x153 + x155 + x170 + x172 + x173  = 1
 c42: x42 + x51 + x52 + x53 + x54 + x55 + x56 + x60 + x62 + x65 + x67 + x69
      + x71 + x79 + x81 + x82 + x83 + x98 + x100 + x107 + x111 + x114 + x129
      + x138 + x156 + x167  = 1
 c43: x43 + x51 + x52 + x53 + x54 + x55 + x56 + x57 + x59 + x61 + x63 + x67
      + x71 + x75 + x76 + x85 + x90 + x109 + x116 + x130 + x132 + x133 + x137
      + x146 + x150  = 1
 c44: x44 + x51 + x52 + x53 + x54 + x55 + x56 + x57 + x58 + x62 + x64 + x65
      + x66 + x70 + x82 + x84 + x86 + x92 + x105 + x109 + x113 + x116 + x126
      + x145  = 1
 c45: x45 + x51 + x52 + x53 + x54 + x55 + x56 + x57 + x58 + x59 + x62 + x64
      + x67 + x68 + x74 + x77 + x78 + x86 + x89 + x102 + x108 + x114 + x137
      + x161 + x169  = 1
 c46: x46 + x51 + x52 + x53 + x54 + x55 + x56 + x57 + x58 + x59 + x60 + x63
      + x66 + x69 + x73 + x74 + x77 + x81 + x84 + x85 + x86 + x87 + x91 + x100
      + x111 + x125 + x128 + x130 + x131 + x159  = 1
 c47: x47 + x51 + x52 + x53 + x54 + x58 + x59 + x60 + x61 + x64 + x69 + x72
      + x77 + x79 + x80 + x92 + x99 + x106 + x107 + x138 + x139 + x151 + x162
      + x171  = 1
 c48: x48 + x51 + x52 + x53 + x55 + x58 + x60 + x61 + x63 + x68 + x70 + x74
      + x77 + x79 + x80 + x81 + x85 + x88 + x89 + x98 + x103 + x107 + x113
      + x128 + x129 + x134 + x157 + x159 + x167  = 1
 c49: x49 + x51 + x52 + x56 + x57 + x59 + x60 + x62 + x63 + x66 + x68 + x71
      + x72 + x81 + x83 + x84 + x88 + x97 + x99 + x101 + x110 + x125 + x143
      + x161  = 1
 c50: x50 + x51 + x56 + x58 + x59 + x62 + x63 + x64 + x66 + x67 + x69 + x70
      + x74 + x76 + x87 + x90 + x96 + x107 + x110 + x111 + x118 + x122 + x123
      + x144 + x161 + x178  = 1
End
